c *********************************
c * Circuit generated by BenCGen
c *
c * RippleCarryAdderSubtractor_93_93_93_OutSunT
c *
c * Ports with 1 gate(s): 2
c * Ports with 2 gate(s): 560
c * Total gates: 562
c *********************************
p cnf 748 1964
1 282 0
-1 -282 0
1 -281 0
282 -281 0
-1 -282 281 0
281 283 0
-281 -283 0
94 281 -284 0
-94 281 284 0
94 -281 284 0
-94 -281 -284 0
95 281 -285 0
-95 281 285 0
95 -281 285 0
-95 -281 -285 0
96 281 -286 0
-96 281 286 0
96 -281 286 0
-96 -281 -286 0
97 281 -287 0
-97 281 287 0
97 -281 287 0
-97 -281 -287 0
98 281 -288 0
-98 281 288 0
98 -281 288 0
-98 -281 -288 0
99 281 -289 0
-99 281 289 0
99 -281 289 0
-99 -281 -289 0
100 281 -290 0
-100 281 290 0
100 -281 290 0
-100 -281 -290 0
101 281 -291 0
-101 281 291 0
101 -281 291 0
-101 -281 -291 0
102 281 -292 0
-102 281 292 0
102 -281 292 0
-102 -281 -292 0
103 281 -293 0
-103 281 293 0
103 -281 293 0
-103 -281 -293 0
104 281 -294 0
-104 281 294 0
104 -281 294 0
-104 -281 -294 0
105 281 -295 0
-105 281 295 0
105 -281 295 0
-105 -281 -295 0
106 281 -296 0
-106 281 296 0
106 -281 296 0
-106 -281 -296 0
107 281 -297 0
-107 281 297 0
107 -281 297 0
-107 -281 -297 0
108 281 -298 0
-108 281 298 0
108 -281 298 0
-108 -281 -298 0
109 281 -299 0
-109 281 299 0
109 -281 299 0
-109 -281 -299 0
110 281 -300 0
-110 281 300 0
110 -281 300 0
-110 -281 -300 0
111 281 -301 0
-111 281 301 0
111 -281 301 0
-111 -281 -301 0
112 281 -302 0
-112 281 302 0
112 -281 302 0
-112 -281 -302 0
113 281 -303 0
-113 281 303 0
113 -281 303 0
-113 -281 -303 0
114 281 -304 0
-114 281 304 0
114 -281 304 0
-114 -281 -304 0
115 281 -305 0
-115 281 305 0
115 -281 305 0
-115 -281 -305 0
116 281 -306 0
-116 281 306 0
116 -281 306 0
-116 -281 -306 0
117 281 -307 0
-117 281 307 0
117 -281 307 0
-117 -281 -307 0
118 281 -308 0
-118 281 308 0
118 -281 308 0
-118 -281 -308 0
119 281 -309 0
-119 281 309 0
119 -281 309 0
-119 -281 -309 0
120 281 -310 0
-120 281 310 0
120 -281 310 0
-120 -281 -310 0
121 281 -311 0
-121 281 311 0
121 -281 311 0
-121 -281 -311 0
122 281 -312 0
-122 281 312 0
122 -281 312 0
-122 -281 -312 0
123 281 -313 0
-123 281 313 0
123 -281 313 0
-123 -281 -313 0
124 281 -314 0
-124 281 314 0
124 -281 314 0
-124 -281 -314 0
125 281 -315 0
-125 281 315 0
125 -281 315 0
-125 -281 -315 0
126 281 -316 0
-126 281 316 0
126 -281 316 0
-126 -281 -316 0
127 281 -317 0
-127 281 317 0
127 -281 317 0
-127 -281 -317 0
128 281 -318 0
-128 281 318 0
128 -281 318 0
-128 -281 -318 0
129 281 -319 0
-129 281 319 0
129 -281 319 0
-129 -281 -319 0
130 281 -320 0
-130 281 320 0
130 -281 320 0
-130 -281 -320 0
131 281 -321 0
-131 281 321 0
131 -281 321 0
-131 -281 -321 0
132 281 -322 0
-132 281 322 0
132 -281 322 0
-132 -281 -322 0
133 281 -323 0
-133 281 323 0
133 -281 323 0
-133 -281 -323 0
134 281 -324 0
-134 281 324 0
134 -281 324 0
-134 -281 -324 0
135 281 -325 0
-135 281 325 0
135 -281 325 0
-135 -281 -325 0
136 281 -326 0
-136 281 326 0
136 -281 326 0
-136 -281 -326 0
137 281 -327 0
-137 281 327 0
137 -281 327 0
-137 -281 -327 0
138 281 -328 0
-138 281 328 0
138 -281 328 0
-138 -281 -328 0
139 281 -329 0
-139 281 329 0
139 -281 329 0
-139 -281 -329 0
140 281 -330 0
-140 281 330 0
140 -281 330 0
-140 -281 -330 0
141 281 -331 0
-141 281 331 0
141 -281 331 0
-141 -281 -331 0
142 281 -332 0
-142 281 332 0
142 -281 332 0
-142 -281 -332 0
143 281 -333 0
-143 281 333 0
143 -281 333 0
-143 -281 -333 0
144 281 -334 0
-144 281 334 0
144 -281 334 0
-144 -281 -334 0
145 281 -335 0
-145 281 335 0
145 -281 335 0
-145 -281 -335 0
146 281 -336 0
-146 281 336 0
146 -281 336 0
-146 -281 -336 0
147 281 -337 0
-147 281 337 0
147 -281 337 0
-147 -281 -337 0
148 281 -338 0
-148 281 338 0
148 -281 338 0
-148 -281 -338 0
149 281 -339 0
-149 281 339 0
149 -281 339 0
-149 -281 -339 0
150 281 -340 0
-150 281 340 0
150 -281 340 0
-150 -281 -340 0
151 281 -341 0
-151 281 341 0
151 -281 341 0
-151 -281 -341 0
152 281 -342 0
-152 281 342 0
152 -281 342 0
-152 -281 -342 0
153 281 -343 0
-153 281 343 0
153 -281 343 0
-153 -281 -343 0
154 281 -344 0
-154 281 344 0
154 -281 344 0
-154 -281 -344 0
155 281 -345 0
-155 281 345 0
155 -281 345 0
-155 -281 -345 0
156 281 -346 0
-156 281 346 0
156 -281 346 0
-156 -281 -346 0
157 281 -347 0
-157 281 347 0
157 -281 347 0
-157 -281 -347 0
158 281 -348 0
-158 281 348 0
158 -281 348 0
-158 -281 -348 0
159 281 -349 0
-159 281 349 0
159 -281 349 0
-159 -281 -349 0
160 281 -350 0
-160 281 350 0
160 -281 350 0
-160 -281 -350 0
161 281 -351 0
-161 281 351 0
161 -281 351 0
-161 -281 -351 0
162 281 -352 0
-162 281 352 0
162 -281 352 0
-162 -281 -352 0
163 281 -353 0
-163 281 353 0
163 -281 353 0
-163 -281 -353 0
164 281 -354 0
-164 281 354 0
164 -281 354 0
-164 -281 -354 0
165 281 -355 0
-165 281 355 0
165 -281 355 0
-165 -281 -355 0
166 281 -356 0
-166 281 356 0
166 -281 356 0
-166 -281 -356 0
167 281 -357 0
-167 281 357 0
167 -281 357 0
-167 -281 -357 0
168 281 -358 0
-168 281 358 0
168 -281 358 0
-168 -281 -358 0
169 281 -359 0
-169 281 359 0
169 -281 359 0
-169 -281 -359 0
170 281 -360 0
-170 281 360 0
170 -281 360 0
-170 -281 -360 0
171 281 -361 0
-171 281 361 0
171 -281 361 0
-171 -281 -361 0
172 281 -362 0
-172 281 362 0
172 -281 362 0
-172 -281 -362 0
173 281 -363 0
-173 281 363 0
173 -281 363 0
-173 -281 -363 0
174 281 -364 0
-174 281 364 0
174 -281 364 0
-174 -281 -364 0
175 281 -365 0
-175 281 365 0
175 -281 365 0
-175 -281 -365 0
176 281 -366 0
-176 281 366 0
176 -281 366 0
-176 -281 -366 0
177 281 -367 0
-177 281 367 0
177 -281 367 0
-177 -281 -367 0
178 281 -368 0
-178 281 368 0
178 -281 368 0
-178 -281 -368 0
179 281 -369 0
-179 281 369 0
179 -281 369 0
-179 -281 -369 0
180 281 -370 0
-180 281 370 0
180 -281 370 0
-180 -281 -370 0
181 281 -371 0
-181 281 371 0
181 -281 371 0
-181 -281 -371 0
182 281 -372 0
-182 281 372 0
182 -281 372 0
-182 -281 -372 0
183 281 -373 0
-183 281 373 0
183 -281 373 0
-183 -281 -373 0
184 281 -374 0
-184 281 374 0
184 -281 374 0
-184 -281 -374 0
185 281 -375 0
-185 281 375 0
185 -281 375 0
-185 -281 -375 0
186 281 -376 0
-186 281 376 0
186 -281 376 0
-186 -281 -376 0
1 284 -378 0
-1 284 378 0
1 -284 378 0
-1 -284 -378 0
378 281 -187 0
-378 281 187 0
378 -281 187 0
-378 -281 -187 0
281 -379 0
378 -379 0
-281 -378 379 0
284 -380 0
1 -380 0
-284 -1 380 0
-379 377 0
-380 377 0
379 380 -377 0
2 285 -382 0
-2 285 382 0
2 -285 382 0
-2 -285 -382 0
382 377 -188 0
-382 377 188 0
382 -377 188 0
-382 -377 -188 0
377 -383 0
382 -383 0
-377 -382 383 0
285 -384 0
2 -384 0
-285 -2 384 0
-383 381 0
-384 381 0
383 384 -381 0
3 286 -386 0
-3 286 386 0
3 -286 386 0
-3 -286 -386 0
386 381 -189 0
-386 381 189 0
386 -381 189 0
-386 -381 -189 0
381 -387 0
386 -387 0
-381 -386 387 0
286 -388 0
3 -388 0
-286 -3 388 0
-387 385 0
-388 385 0
387 388 -385 0
4 287 -390 0
-4 287 390 0
4 -287 390 0
-4 -287 -390 0
390 385 -190 0
-390 385 190 0
390 -385 190 0
-390 -385 -190 0
385 -391 0
390 -391 0
-385 -390 391 0
287 -392 0
4 -392 0
-287 -4 392 0
-391 389 0
-392 389 0
391 392 -389 0
5 288 -394 0
-5 288 394 0
5 -288 394 0
-5 -288 -394 0
394 389 -191 0
-394 389 191 0
394 -389 191 0
-394 -389 -191 0
389 -395 0
394 -395 0
-389 -394 395 0
288 -396 0
5 -396 0
-288 -5 396 0
-395 393 0
-396 393 0
395 396 -393 0
6 289 -398 0
-6 289 398 0
6 -289 398 0
-6 -289 -398 0
398 393 -192 0
-398 393 192 0
398 -393 192 0
-398 -393 -192 0
393 -399 0
398 -399 0
-393 -398 399 0
289 -400 0
6 -400 0
-289 -6 400 0
-399 397 0
-400 397 0
399 400 -397 0
7 290 -402 0
-7 290 402 0
7 -290 402 0
-7 -290 -402 0
402 397 -193 0
-402 397 193 0
402 -397 193 0
-402 -397 -193 0
397 -403 0
402 -403 0
-397 -402 403 0
290 -404 0
7 -404 0
-290 -7 404 0
-403 401 0
-404 401 0
403 404 -401 0
8 291 -406 0
-8 291 406 0
8 -291 406 0
-8 -291 -406 0
406 401 -194 0
-406 401 194 0
406 -401 194 0
-406 -401 -194 0
401 -407 0
406 -407 0
-401 -406 407 0
291 -408 0
8 -408 0
-291 -8 408 0
-407 405 0
-408 405 0
407 408 -405 0
9 292 -410 0
-9 292 410 0
9 -292 410 0
-9 -292 -410 0
410 405 -195 0
-410 405 195 0
410 -405 195 0
-410 -405 -195 0
405 -411 0
410 -411 0
-405 -410 411 0
292 -412 0
9 -412 0
-292 -9 412 0
-411 409 0
-412 409 0
411 412 -409 0
10 293 -414 0
-10 293 414 0
10 -293 414 0
-10 -293 -414 0
414 409 -196 0
-414 409 196 0
414 -409 196 0
-414 -409 -196 0
409 -415 0
414 -415 0
-409 -414 415 0
293 -416 0
10 -416 0
-293 -10 416 0
-415 413 0
-416 413 0
415 416 -413 0
11 294 -418 0
-11 294 418 0
11 -294 418 0
-11 -294 -418 0
418 413 -197 0
-418 413 197 0
418 -413 197 0
-418 -413 -197 0
413 -419 0
418 -419 0
-413 -418 419 0
294 -420 0
11 -420 0
-294 -11 420 0
-419 417 0
-420 417 0
419 420 -417 0
12 295 -422 0
-12 295 422 0
12 -295 422 0
-12 -295 -422 0
422 417 -198 0
-422 417 198 0
422 -417 198 0
-422 -417 -198 0
417 -423 0
422 -423 0
-417 -422 423 0
295 -424 0
12 -424 0
-295 -12 424 0
-423 421 0
-424 421 0
423 424 -421 0
13 296 -426 0
-13 296 426 0
13 -296 426 0
-13 -296 -426 0
426 421 -199 0
-426 421 199 0
426 -421 199 0
-426 -421 -199 0
421 -427 0
426 -427 0
-421 -426 427 0
296 -428 0
13 -428 0
-296 -13 428 0
-427 425 0
-428 425 0
427 428 -425 0
14 297 -430 0
-14 297 430 0
14 -297 430 0
-14 -297 -430 0
430 425 -200 0
-430 425 200 0
430 -425 200 0
-430 -425 -200 0
425 -431 0
430 -431 0
-425 -430 431 0
297 -432 0
14 -432 0
-297 -14 432 0
-431 429 0
-432 429 0
431 432 -429 0
15 298 -434 0
-15 298 434 0
15 -298 434 0
-15 -298 -434 0
434 429 -201 0
-434 429 201 0
434 -429 201 0
-434 -429 -201 0
429 -435 0
434 -435 0
-429 -434 435 0
298 -436 0
15 -436 0
-298 -15 436 0
-435 433 0
-436 433 0
435 436 -433 0
16 299 -438 0
-16 299 438 0
16 -299 438 0
-16 -299 -438 0
438 433 -202 0
-438 433 202 0
438 -433 202 0
-438 -433 -202 0
433 -439 0
438 -439 0
-433 -438 439 0
299 -440 0
16 -440 0
-299 -16 440 0
-439 437 0
-440 437 0
439 440 -437 0
17 300 -442 0
-17 300 442 0
17 -300 442 0
-17 -300 -442 0
442 437 -203 0
-442 437 203 0
442 -437 203 0
-442 -437 -203 0
437 -443 0
442 -443 0
-437 -442 443 0
300 -444 0
17 -444 0
-300 -17 444 0
-443 441 0
-444 441 0
443 444 -441 0
18 301 -446 0
-18 301 446 0
18 -301 446 0
-18 -301 -446 0
446 441 -204 0
-446 441 204 0
446 -441 204 0
-446 -441 -204 0
441 -447 0
446 -447 0
-441 -446 447 0
301 -448 0
18 -448 0
-301 -18 448 0
-447 445 0
-448 445 0
447 448 -445 0
19 302 -450 0
-19 302 450 0
19 -302 450 0
-19 -302 -450 0
450 445 -205 0
-450 445 205 0
450 -445 205 0
-450 -445 -205 0
445 -451 0
450 -451 0
-445 -450 451 0
302 -452 0
19 -452 0
-302 -19 452 0
-451 449 0
-452 449 0
451 452 -449 0
20 303 -454 0
-20 303 454 0
20 -303 454 0
-20 -303 -454 0
454 449 -206 0
-454 449 206 0
454 -449 206 0
-454 -449 -206 0
449 -455 0
454 -455 0
-449 -454 455 0
303 -456 0
20 -456 0
-303 -20 456 0
-455 453 0
-456 453 0
455 456 -453 0
21 304 -458 0
-21 304 458 0
21 -304 458 0
-21 -304 -458 0
458 453 -207 0
-458 453 207 0
458 -453 207 0
-458 -453 -207 0
453 -459 0
458 -459 0
-453 -458 459 0
304 -460 0
21 -460 0
-304 -21 460 0
-459 457 0
-460 457 0
459 460 -457 0
22 305 -462 0
-22 305 462 0
22 -305 462 0
-22 -305 -462 0
462 457 -208 0
-462 457 208 0
462 -457 208 0
-462 -457 -208 0
457 -463 0
462 -463 0
-457 -462 463 0
305 -464 0
22 -464 0
-305 -22 464 0
-463 461 0
-464 461 0
463 464 -461 0
23 306 -466 0
-23 306 466 0
23 -306 466 0
-23 -306 -466 0
466 461 -209 0
-466 461 209 0
466 -461 209 0
-466 -461 -209 0
461 -467 0
466 -467 0
-461 -466 467 0
306 -468 0
23 -468 0
-306 -23 468 0
-467 465 0
-468 465 0
467 468 -465 0
24 307 -470 0
-24 307 470 0
24 -307 470 0
-24 -307 -470 0
470 465 -210 0
-470 465 210 0
470 -465 210 0
-470 -465 -210 0
465 -471 0
470 -471 0
-465 -470 471 0
307 -472 0
24 -472 0
-307 -24 472 0
-471 469 0
-472 469 0
471 472 -469 0
25 308 -474 0
-25 308 474 0
25 -308 474 0
-25 -308 -474 0
474 469 -211 0
-474 469 211 0
474 -469 211 0
-474 -469 -211 0
469 -475 0
474 -475 0
-469 -474 475 0
308 -476 0
25 -476 0
-308 -25 476 0
-475 473 0
-476 473 0
475 476 -473 0
26 309 -478 0
-26 309 478 0
26 -309 478 0
-26 -309 -478 0
478 473 -212 0
-478 473 212 0
478 -473 212 0
-478 -473 -212 0
473 -479 0
478 -479 0
-473 -478 479 0
309 -480 0
26 -480 0
-309 -26 480 0
-479 477 0
-480 477 0
479 480 -477 0
27 310 -482 0
-27 310 482 0
27 -310 482 0
-27 -310 -482 0
482 477 -213 0
-482 477 213 0
482 -477 213 0
-482 -477 -213 0
477 -483 0
482 -483 0
-477 -482 483 0
310 -484 0
27 -484 0
-310 -27 484 0
-483 481 0
-484 481 0
483 484 -481 0
28 311 -486 0
-28 311 486 0
28 -311 486 0
-28 -311 -486 0
486 481 -214 0
-486 481 214 0
486 -481 214 0
-486 -481 -214 0
481 -487 0
486 -487 0
-481 -486 487 0
311 -488 0
28 -488 0
-311 -28 488 0
-487 485 0
-488 485 0
487 488 -485 0
29 312 -490 0
-29 312 490 0
29 -312 490 0
-29 -312 -490 0
490 485 -215 0
-490 485 215 0
490 -485 215 0
-490 -485 -215 0
485 -491 0
490 -491 0
-485 -490 491 0
312 -492 0
29 -492 0
-312 -29 492 0
-491 489 0
-492 489 0
491 492 -489 0
30 313 -494 0
-30 313 494 0
30 -313 494 0
-30 -313 -494 0
494 489 -216 0
-494 489 216 0
494 -489 216 0
-494 -489 -216 0
489 -495 0
494 -495 0
-489 -494 495 0
313 -496 0
30 -496 0
-313 -30 496 0
-495 493 0
-496 493 0
495 496 -493 0
31 314 -498 0
-31 314 498 0
31 -314 498 0
-31 -314 -498 0
498 493 -217 0
-498 493 217 0
498 -493 217 0
-498 -493 -217 0
493 -499 0
498 -499 0
-493 -498 499 0
314 -500 0
31 -500 0
-314 -31 500 0
-499 497 0
-500 497 0
499 500 -497 0
32 315 -502 0
-32 315 502 0
32 -315 502 0
-32 -315 -502 0
502 497 -218 0
-502 497 218 0
502 -497 218 0
-502 -497 -218 0
497 -503 0
502 -503 0
-497 -502 503 0
315 -504 0
32 -504 0
-315 -32 504 0
-503 501 0
-504 501 0
503 504 -501 0
33 316 -506 0
-33 316 506 0
33 -316 506 0
-33 -316 -506 0
506 501 -219 0
-506 501 219 0
506 -501 219 0
-506 -501 -219 0
501 -507 0
506 -507 0
-501 -506 507 0
316 -508 0
33 -508 0
-316 -33 508 0
-507 505 0
-508 505 0
507 508 -505 0
34 317 -510 0
-34 317 510 0
34 -317 510 0
-34 -317 -510 0
510 505 -220 0
-510 505 220 0
510 -505 220 0
-510 -505 -220 0
505 -511 0
510 -511 0
-505 -510 511 0
317 -512 0
34 -512 0
-317 -34 512 0
-511 509 0
-512 509 0
511 512 -509 0
35 318 -514 0
-35 318 514 0
35 -318 514 0
-35 -318 -514 0
514 509 -221 0
-514 509 221 0
514 -509 221 0
-514 -509 -221 0
509 -515 0
514 -515 0
-509 -514 515 0
318 -516 0
35 -516 0
-318 -35 516 0
-515 513 0
-516 513 0
515 516 -513 0
36 319 -518 0
-36 319 518 0
36 -319 518 0
-36 -319 -518 0
518 513 -222 0
-518 513 222 0
518 -513 222 0
-518 -513 -222 0
513 -519 0
518 -519 0
-513 -518 519 0
319 -520 0
36 -520 0
-319 -36 520 0
-519 517 0
-520 517 0
519 520 -517 0
37 320 -522 0
-37 320 522 0
37 -320 522 0
-37 -320 -522 0
522 517 -223 0
-522 517 223 0
522 -517 223 0
-522 -517 -223 0
517 -523 0
522 -523 0
-517 -522 523 0
320 -524 0
37 -524 0
-320 -37 524 0
-523 521 0
-524 521 0
523 524 -521 0
38 321 -526 0
-38 321 526 0
38 -321 526 0
-38 -321 -526 0
526 521 -224 0
-526 521 224 0
526 -521 224 0
-526 -521 -224 0
521 -527 0
526 -527 0
-521 -526 527 0
321 -528 0
38 -528 0
-321 -38 528 0
-527 525 0
-528 525 0
527 528 -525 0
39 322 -530 0
-39 322 530 0
39 -322 530 0
-39 -322 -530 0
530 525 -225 0
-530 525 225 0
530 -525 225 0
-530 -525 -225 0
525 -531 0
530 -531 0
-525 -530 531 0
322 -532 0
39 -532 0
-322 -39 532 0
-531 529 0
-532 529 0
531 532 -529 0
40 323 -534 0
-40 323 534 0
40 -323 534 0
-40 -323 -534 0
534 529 -226 0
-534 529 226 0
534 -529 226 0
-534 -529 -226 0
529 -535 0
534 -535 0
-529 -534 535 0
323 -536 0
40 -536 0
-323 -40 536 0
-535 533 0
-536 533 0
535 536 -533 0
41 324 -538 0
-41 324 538 0
41 -324 538 0
-41 -324 -538 0
538 533 -227 0
-538 533 227 0
538 -533 227 0
-538 -533 -227 0
533 -539 0
538 -539 0
-533 -538 539 0
324 -540 0
41 -540 0
-324 -41 540 0
-539 537 0
-540 537 0
539 540 -537 0
42 325 -542 0
-42 325 542 0
42 -325 542 0
-42 -325 -542 0
542 537 -228 0
-542 537 228 0
542 -537 228 0
-542 -537 -228 0
537 -543 0
542 -543 0
-537 -542 543 0
325 -544 0
42 -544 0
-325 -42 544 0
-543 541 0
-544 541 0
543 544 -541 0
43 326 -546 0
-43 326 546 0
43 -326 546 0
-43 -326 -546 0
546 541 -229 0
-546 541 229 0
546 -541 229 0
-546 -541 -229 0
541 -547 0
546 -547 0
-541 -546 547 0
326 -548 0
43 -548 0
-326 -43 548 0
-547 545 0
-548 545 0
547 548 -545 0
44 327 -550 0
-44 327 550 0
44 -327 550 0
-44 -327 -550 0
550 545 -230 0
-550 545 230 0
550 -545 230 0
-550 -545 -230 0
545 -551 0
550 -551 0
-545 -550 551 0
327 -552 0
44 -552 0
-327 -44 552 0
-551 549 0
-552 549 0
551 552 -549 0
45 328 -554 0
-45 328 554 0
45 -328 554 0
-45 -328 -554 0
554 549 -231 0
-554 549 231 0
554 -549 231 0
-554 -549 -231 0
549 -555 0
554 -555 0
-549 -554 555 0
328 -556 0
45 -556 0
-328 -45 556 0
-555 553 0
-556 553 0
555 556 -553 0
46 329 -558 0
-46 329 558 0
46 -329 558 0
-46 -329 -558 0
558 553 -232 0
-558 553 232 0
558 -553 232 0
-558 -553 -232 0
553 -559 0
558 -559 0
-553 -558 559 0
329 -560 0
46 -560 0
-329 -46 560 0
-559 557 0
-560 557 0
559 560 -557 0
47 330 -562 0
-47 330 562 0
47 -330 562 0
-47 -330 -562 0
562 557 -233 0
-562 557 233 0
562 -557 233 0
-562 -557 -233 0
557 -563 0
562 -563 0
-557 -562 563 0
330 -564 0
47 -564 0
-330 -47 564 0
-563 561 0
-564 561 0
563 564 -561 0
48 331 -566 0
-48 331 566 0
48 -331 566 0
-48 -331 -566 0
566 561 -234 0
-566 561 234 0
566 -561 234 0
-566 -561 -234 0
561 -567 0
566 -567 0
-561 -566 567 0
331 -568 0
48 -568 0
-331 -48 568 0
-567 565 0
-568 565 0
567 568 -565 0
49 332 -570 0
-49 332 570 0
49 -332 570 0
-49 -332 -570 0
570 565 -235 0
-570 565 235 0
570 -565 235 0
-570 -565 -235 0
565 -571 0
570 -571 0
-565 -570 571 0
332 -572 0
49 -572 0
-332 -49 572 0
-571 569 0
-572 569 0
571 572 -569 0
50 333 -574 0
-50 333 574 0
50 -333 574 0
-50 -333 -574 0
574 569 -236 0
-574 569 236 0
574 -569 236 0
-574 -569 -236 0
569 -575 0
574 -575 0
-569 -574 575 0
333 -576 0
50 -576 0
-333 -50 576 0
-575 573 0
-576 573 0
575 576 -573 0
51 334 -578 0
-51 334 578 0
51 -334 578 0
-51 -334 -578 0
578 573 -237 0
-578 573 237 0
578 -573 237 0
-578 -573 -237 0
573 -579 0
578 -579 0
-573 -578 579 0
334 -580 0
51 -580 0
-334 -51 580 0
-579 577 0
-580 577 0
579 580 -577 0
52 335 -582 0
-52 335 582 0
52 -335 582 0
-52 -335 -582 0
582 577 -238 0
-582 577 238 0
582 -577 238 0
-582 -577 -238 0
577 -583 0
582 -583 0
-577 -582 583 0
335 -584 0
52 -584 0
-335 -52 584 0
-583 581 0
-584 581 0
583 584 -581 0
53 336 -586 0
-53 336 586 0
53 -336 586 0
-53 -336 -586 0
586 581 -239 0
-586 581 239 0
586 -581 239 0
-586 -581 -239 0
581 -587 0
586 -587 0
-581 -586 587 0
336 -588 0
53 -588 0
-336 -53 588 0
-587 585 0
-588 585 0
587 588 -585 0
54 337 -590 0
-54 337 590 0
54 -337 590 0
-54 -337 -590 0
590 585 -240 0
-590 585 240 0
590 -585 240 0
-590 -585 -240 0
585 -591 0
590 -591 0
-585 -590 591 0
337 -592 0
54 -592 0
-337 -54 592 0
-591 589 0
-592 589 0
591 592 -589 0
55 338 -594 0
-55 338 594 0
55 -338 594 0
-55 -338 -594 0
594 589 -241 0
-594 589 241 0
594 -589 241 0
-594 -589 -241 0
589 -595 0
594 -595 0
-589 -594 595 0
338 -596 0
55 -596 0
-338 -55 596 0
-595 593 0
-596 593 0
595 596 -593 0
56 339 -598 0
-56 339 598 0
56 -339 598 0
-56 -339 -598 0
598 593 -242 0
-598 593 242 0
598 -593 242 0
-598 -593 -242 0
593 -599 0
598 -599 0
-593 -598 599 0
339 -600 0
56 -600 0
-339 -56 600 0
-599 597 0
-600 597 0
599 600 -597 0
57 340 -602 0
-57 340 602 0
57 -340 602 0
-57 -340 -602 0
602 597 -243 0
-602 597 243 0
602 -597 243 0
-602 -597 -243 0
597 -603 0
602 -603 0
-597 -602 603 0
340 -604 0
57 -604 0
-340 -57 604 0
-603 601 0
-604 601 0
603 604 -601 0
58 341 -606 0
-58 341 606 0
58 -341 606 0
-58 -341 -606 0
606 601 -244 0
-606 601 244 0
606 -601 244 0
-606 -601 -244 0
601 -607 0
606 -607 0
-601 -606 607 0
341 -608 0
58 -608 0
-341 -58 608 0
-607 605 0
-608 605 0
607 608 -605 0
59 342 -610 0
-59 342 610 0
59 -342 610 0
-59 -342 -610 0
610 605 -245 0
-610 605 245 0
610 -605 245 0
-610 -605 -245 0
605 -611 0
610 -611 0
-605 -610 611 0
342 -612 0
59 -612 0
-342 -59 612 0
-611 609 0
-612 609 0
611 612 -609 0
60 343 -614 0
-60 343 614 0
60 -343 614 0
-60 -343 -614 0
614 609 -246 0
-614 609 246 0
614 -609 246 0
-614 -609 -246 0
609 -615 0
614 -615 0
-609 -614 615 0
343 -616 0
60 -616 0
-343 -60 616 0
-615 613 0
-616 613 0
615 616 -613 0
61 344 -618 0
-61 344 618 0
61 -344 618 0
-61 -344 -618 0
618 613 -247 0
-618 613 247 0
618 -613 247 0
-618 -613 -247 0
613 -619 0
618 -619 0
-613 -618 619 0
344 -620 0
61 -620 0
-344 -61 620 0
-619 617 0
-620 617 0
619 620 -617 0
62 345 -622 0
-62 345 622 0
62 -345 622 0
-62 -345 -622 0
622 617 -248 0
-622 617 248 0
622 -617 248 0
-622 -617 -248 0
617 -623 0
622 -623 0
-617 -622 623 0
345 -624 0
62 -624 0
-345 -62 624 0
-623 621 0
-624 621 0
623 624 -621 0
63 346 -626 0
-63 346 626 0
63 -346 626 0
-63 -346 -626 0
626 621 -249 0
-626 621 249 0
626 -621 249 0
-626 -621 -249 0
621 -627 0
626 -627 0
-621 -626 627 0
346 -628 0
63 -628 0
-346 -63 628 0
-627 625 0
-628 625 0
627 628 -625 0
64 347 -630 0
-64 347 630 0
64 -347 630 0
-64 -347 -630 0
630 625 -250 0
-630 625 250 0
630 -625 250 0
-630 -625 -250 0
625 -631 0
630 -631 0
-625 -630 631 0
347 -632 0
64 -632 0
-347 -64 632 0
-631 629 0
-632 629 0
631 632 -629 0
65 348 -634 0
-65 348 634 0
65 -348 634 0
-65 -348 -634 0
634 629 -251 0
-634 629 251 0
634 -629 251 0
-634 -629 -251 0
629 -635 0
634 -635 0
-629 -634 635 0
348 -636 0
65 -636 0
-348 -65 636 0
-635 633 0
-636 633 0
635 636 -633 0
66 349 -638 0
-66 349 638 0
66 -349 638 0
-66 -349 -638 0
638 633 -252 0
-638 633 252 0
638 -633 252 0
-638 -633 -252 0
633 -639 0
638 -639 0
-633 -638 639 0
349 -640 0
66 -640 0
-349 -66 640 0
-639 637 0
-640 637 0
639 640 -637 0
67 350 -642 0
-67 350 642 0
67 -350 642 0
-67 -350 -642 0
642 637 -253 0
-642 637 253 0
642 -637 253 0
-642 -637 -253 0
637 -643 0
642 -643 0
-637 -642 643 0
350 -644 0
67 -644 0
-350 -67 644 0
-643 641 0
-644 641 0
643 644 -641 0
68 351 -646 0
-68 351 646 0
68 -351 646 0
-68 -351 -646 0
646 641 -254 0
-646 641 254 0
646 -641 254 0
-646 -641 -254 0
641 -647 0
646 -647 0
-641 -646 647 0
351 -648 0
68 -648 0
-351 -68 648 0
-647 645 0
-648 645 0
647 648 -645 0
69 352 -650 0
-69 352 650 0
69 -352 650 0
-69 -352 -650 0
650 645 -255 0
-650 645 255 0
650 -645 255 0
-650 -645 -255 0
645 -651 0
650 -651 0
-645 -650 651 0
352 -652 0
69 -652 0
-352 -69 652 0
-651 649 0
-652 649 0
651 652 -649 0
70 353 -654 0
-70 353 654 0
70 -353 654 0
-70 -353 -654 0
654 649 -256 0
-654 649 256 0
654 -649 256 0
-654 -649 -256 0
649 -655 0
654 -655 0
-649 -654 655 0
353 -656 0
70 -656 0
-353 -70 656 0
-655 653 0
-656 653 0
655 656 -653 0
71 354 -658 0
-71 354 658 0
71 -354 658 0
-71 -354 -658 0
658 653 -257 0
-658 653 257 0
658 -653 257 0
-658 -653 -257 0
653 -659 0
658 -659 0
-653 -658 659 0
354 -660 0
71 -660 0
-354 -71 660 0
-659 657 0
-660 657 0
659 660 -657 0
72 355 -662 0
-72 355 662 0
72 -355 662 0
-72 -355 -662 0
662 657 -258 0
-662 657 258 0
662 -657 258 0
-662 -657 -258 0
657 -663 0
662 -663 0
-657 -662 663 0
355 -664 0
72 -664 0
-355 -72 664 0
-663 661 0
-664 661 0
663 664 -661 0
73 356 -666 0
-73 356 666 0
73 -356 666 0
-73 -356 -666 0
666 661 -259 0
-666 661 259 0
666 -661 259 0
-666 -661 -259 0
661 -667 0
666 -667 0
-661 -666 667 0
356 -668 0
73 -668 0
-356 -73 668 0
-667 665 0
-668 665 0
667 668 -665 0
74 357 -670 0
-74 357 670 0
74 -357 670 0
-74 -357 -670 0
670 665 -260 0
-670 665 260 0
670 -665 260 0
-670 -665 -260 0
665 -671 0
670 -671 0
-665 -670 671 0
357 -672 0
74 -672 0
-357 -74 672 0
-671 669 0
-672 669 0
671 672 -669 0
75 358 -674 0
-75 358 674 0
75 -358 674 0
-75 -358 -674 0
674 669 -261 0
-674 669 261 0
674 -669 261 0
-674 -669 -261 0
669 -675 0
674 -675 0
-669 -674 675 0
358 -676 0
75 -676 0
-358 -75 676 0
-675 673 0
-676 673 0
675 676 -673 0
76 359 -678 0
-76 359 678 0
76 -359 678 0
-76 -359 -678 0
678 673 -262 0
-678 673 262 0
678 -673 262 0
-678 -673 -262 0
673 -679 0
678 -679 0
-673 -678 679 0
359 -680 0
76 -680 0
-359 -76 680 0
-679 677 0
-680 677 0
679 680 -677 0
77 360 -682 0
-77 360 682 0
77 -360 682 0
-77 -360 -682 0
682 677 -263 0
-682 677 263 0
682 -677 263 0
-682 -677 -263 0
677 -683 0
682 -683 0
-677 -682 683 0
360 -684 0
77 -684 0
-360 -77 684 0
-683 681 0
-684 681 0
683 684 -681 0
78 361 -686 0
-78 361 686 0
78 -361 686 0
-78 -361 -686 0
686 681 -264 0
-686 681 264 0
686 -681 264 0
-686 -681 -264 0
681 -687 0
686 -687 0
-681 -686 687 0
361 -688 0
78 -688 0
-361 -78 688 0
-687 685 0
-688 685 0
687 688 -685 0
79 362 -690 0
-79 362 690 0
79 -362 690 0
-79 -362 -690 0
690 685 -265 0
-690 685 265 0
690 -685 265 0
-690 -685 -265 0
685 -691 0
690 -691 0
-685 -690 691 0
362 -692 0
79 -692 0
-362 -79 692 0
-691 689 0
-692 689 0
691 692 -689 0
80 363 -694 0
-80 363 694 0
80 -363 694 0
-80 -363 -694 0
694 689 -266 0
-694 689 266 0
694 -689 266 0
-694 -689 -266 0
689 -695 0
694 -695 0
-689 -694 695 0
363 -696 0
80 -696 0
-363 -80 696 0
-695 693 0
-696 693 0
695 696 -693 0
81 364 -698 0
-81 364 698 0
81 -364 698 0
-81 -364 -698 0
698 693 -267 0
-698 693 267 0
698 -693 267 0
-698 -693 -267 0
693 -699 0
698 -699 0
-693 -698 699 0
364 -700 0
81 -700 0
-364 -81 700 0
-699 697 0
-700 697 0
699 700 -697 0
82 365 -702 0
-82 365 702 0
82 -365 702 0
-82 -365 -702 0
702 697 -268 0
-702 697 268 0
702 -697 268 0
-702 -697 -268 0
697 -703 0
702 -703 0
-697 -702 703 0
365 -704 0
82 -704 0
-365 -82 704 0
-703 701 0
-704 701 0
703 704 -701 0
83 366 -706 0
-83 366 706 0
83 -366 706 0
-83 -366 -706 0
706 701 -269 0
-706 701 269 0
706 -701 269 0
-706 -701 -269 0
701 -707 0
706 -707 0
-701 -706 707 0
366 -708 0
83 -708 0
-366 -83 708 0
-707 705 0
-708 705 0
707 708 -705 0
84 367 -710 0
-84 367 710 0
84 -367 710 0
-84 -367 -710 0
710 705 -270 0
-710 705 270 0
710 -705 270 0
-710 -705 -270 0
705 -711 0
710 -711 0
-705 -710 711 0
367 -712 0
84 -712 0
-367 -84 712 0
-711 709 0
-712 709 0
711 712 -709 0
85 368 -714 0
-85 368 714 0
85 -368 714 0
-85 -368 -714 0
714 709 -271 0
-714 709 271 0
714 -709 271 0
-714 -709 -271 0
709 -715 0
714 -715 0
-709 -714 715 0
368 -716 0
85 -716 0
-368 -85 716 0
-715 713 0
-716 713 0
715 716 -713 0
86 369 -718 0
-86 369 718 0
86 -369 718 0
-86 -369 -718 0
718 713 -272 0
-718 713 272 0
718 -713 272 0
-718 -713 -272 0
713 -719 0
718 -719 0
-713 -718 719 0
369 -720 0
86 -720 0
-369 -86 720 0
-719 717 0
-720 717 0
719 720 -717 0
87 370 -722 0
-87 370 722 0
87 -370 722 0
-87 -370 -722 0
722 717 -273 0
-722 717 273 0
722 -717 273 0
-722 -717 -273 0
717 -723 0
722 -723 0
-717 -722 723 0
370 -724 0
87 -724 0
-370 -87 724 0
-723 721 0
-724 721 0
723 724 -721 0
88 371 -726 0
-88 371 726 0
88 -371 726 0
-88 -371 -726 0
726 721 -274 0
-726 721 274 0
726 -721 274 0
-726 -721 -274 0
721 -727 0
726 -727 0
-721 -726 727 0
371 -728 0
88 -728 0
-371 -88 728 0
-727 725 0
-728 725 0
727 728 -725 0
89 372 -730 0
-89 372 730 0
89 -372 730 0
-89 -372 -730 0
730 725 -275 0
-730 725 275 0
730 -725 275 0
-730 -725 -275 0
725 -731 0
730 -731 0
-725 -730 731 0
372 -732 0
89 -732 0
-372 -89 732 0
-731 729 0
-732 729 0
731 732 -729 0
90 373 -734 0
-90 373 734 0
90 -373 734 0
-90 -373 -734 0
734 729 -276 0
-734 729 276 0
734 -729 276 0
-734 -729 -276 0
729 -735 0
734 -735 0
-729 -734 735 0
373 -736 0
90 -736 0
-373 -90 736 0
-735 733 0
-736 733 0
735 736 -733 0
91 374 -738 0
-91 374 738 0
91 -374 738 0
-91 -374 -738 0
738 733 -277 0
-738 733 277 0
738 -733 277 0
-738 -733 -277 0
733 -739 0
738 -739 0
-733 -738 739 0
374 -740 0
91 -740 0
-374 -91 740 0
-739 737 0
-740 737 0
739 740 -737 0
92 375 -742 0
-92 375 742 0
92 -375 742 0
-92 -375 -742 0
742 737 -278 0
-742 737 278 0
742 -737 278 0
-742 -737 -278 0
737 -743 0
742 -743 0
-737 -742 743 0
375 -744 0
92 -744 0
-375 -92 744 0
-743 741 0
-744 741 0
743 744 -741 0
93 376 -746 0
-93 376 746 0
93 -376 746 0
-93 -376 -746 0
746 741 -279 0
-746 741 279 0
746 -741 279 0
-746 -741 -279 0
741 -747 0
746 -747 0
-741 -746 747 0
376 -748 0
93 -748 0
-376 -93 748 0
-747 745 0
-748 745 0
747 748 -745 0
745 281 -280 0
-745 281 280 0
745 -281 280 0
-745 -281 -280 0
